letting x_max be 5
letting y_max be 5

letting blanks be 
[
    [0,0,0,0,0],
    [0,0,0,1,1],
    [0,1,1,1,1],
    [0,1,1,1,1],
    [0,1,1,0,0]

]

letting vertsums be 
[
    [ 0, 0, 0, 7,24],
    [ 0,24, 7, 0, 0],
    [ 0, 0, 0, 0, 0],
    [ 0, 0, 0, 0, 0],
    [ 0, 0, 0, 0, 0]

]

letting horzsums be 
[
    [ 0, 0, 0, 0, 0],
    [ 0, 0,13, 0, 0],
    [21, 0, 0, 0, 0],
    [20, 0, 0, 0, 0],
    [ 8, 0, 0, 0, 0]

]